p cnf 22 24
-1 2 3 4 -12 -13 -14 -15 -16 -21 0 
-1 2 3 5 -6 -7 -8 -9 -10 -11 -17 -18 -19 -20 -22 0 
-1 2 3 6 -5 -7 -8 -9 -10 -11 -17 -18 -19 -20 -22 0 
-1 2 3 7 -5 -6 -8 -9 -10 -11 -17 -18 -19 -20 -22 0 
-2 1 3 8 -5 -6 -7 -9 -10 -11 -17 -18 -19 -20 -22 0 
-2 1 3 9 -5 -6 -7 -8 -10 -11 -17 -18 -19 -20 -22 0 
-2 1 3 10 -5 -6 -7 -8 -9 -11 -17 -18 -19 -20 -22 0 
-2 1 3 11 -5 -6 -7 -8 -9 -10 -17 -18 -19 -20 -22 0 
-3 1 2 12 -4 -13 -14 -15 -16 -21 0 
-1 2 3 13 -4 -12 -14 -15 -16 -21 0 
-3 1 2 13 -4 -12 -14 -15 -16 -21 0 
-1 2 3 14 -4 -12 -13 -15 -16 -21 0 
-2 1 3 13 -4 -12 -14 -15 -16 -21 0 
-1 2 3 13 -4 -12 -14 -15 -16 -21 0 
-1 2 3 15 -4 -12 -13 -14 -16 -21 0 
-2 1 3 13 -4 -12 -14 -15 -16 -21 0 
-1 2 3 16 -4 -12 -13 -14 -15 -21 0 
-1 2 3 17 -5 -6 -7 -8 -9 -10 -11 -18 -19 -20 -22 0 
-2 1 3 18 -5 -6 -7 -8 -9 -10 -11 -17 -19 -20 -22 0 
-2 1 3 19 -5 -6 -7 -8 -9 -10 -11 -17 -18 -20 -22 0 
-1 2 3 20 -5 -6 -7 -8 -9 -10 -11 -17 -18 -19 -22 0 
-1 2 3 21 -4 -12 -13 -14 -15 -16 0 
-1 2 3 22 -5 -6 -7 -8 -9 -10 -11 -17 -18 -19 -20 0 
-1 2 3 9 -5 -6 -7 -8 -10 -11 -17 -18 -19 -20 -22 0 
